
Gurobi 11.0.2 (linux64) logging started Tue 03 Dec 2024 09:03:40 AM CET

Set parameter LogFile to value "./res/knapPI_11_50_1000/knapPI_11_50_1000_18/grb_dom.log"
Set parameter Presolve to value 0
Set parameter Aggregate to value 0
Set parameter Heuristics to value 0
Set parameter LPWarmStart to value 0
Set parameter NLPHeur to value 0
Set parameter PreDepRow to value 0
Set parameter PreDual to value 0
Set parameter RINS to value 0
Set parameter Symmetry to value 0
Set parameter NodeLimit to value 1
Set parameter Threads to value 1

Gurobi 11.0.2 (linux64) logging started Tue 03 Dec 2024 09:03:44 AM CET

Set parameter LogFile to value "./res/knapPI_11_50_1000/knapPI_11_50_1000_18/grb_dom.log"
Set parameter NLPHeur to value 0
Set parameter LPWarmStart to value 0
Set parameter PreDepRow to value 0
Set parameter Symmetry to value 0
Set parameter Presolve to value 0
Gurobi Optimizer version 11.0.2 build v11.0.2rc0 (linux64 - "Pop!_OS 20.04 LTS")

CPU model: Intel(R) Core(TM) i7-8650U CPU @ 1.90GHz, instruction set [SSE2|AVX|AVX2]
Thread count: 4 physical cores, 4 logical processors, using up to 1 threads

Optimize a model with 38332 rows, 50 columns and 1324953 nonzeros
Model fingerprint: 0xdd839805
Variable types: 0 continuous, 50 integer (50 binary)
Coefficient statistics:
  Matrix range     [1e+00, 2e+03]
  Objective range  [1e+02, 2e+03]
  Bounds range     [0e+00, 0e+00]
  RHS range        [8e+03, 8e+03]
Variable types: 0 continuous, 50 integer (50 binary)

Root relaxation: objective 1.073730e+04, 22 iterations, 0.39 seconds (0.09 work units)

    Nodes    |    Current Node    |     Objective Bounds      |     Work
 Expl Unexpl |  Obj  Depth IntInf | Incumbent    BestBd   Gap | It/Node Time

     0     0 10737.3016    0    1          - 10737.3016      -     -    0s
     0     0 10737.3016    0    2          - 10737.3016      -     -    1s
     0     0 10737.3016    0    1          - 10737.3016      -     -    2s
     0     0 10737.3016    0    1          - 10737.3016      -     -    3s
     0     0 10737.3016    0    1          - 10737.3016      -     -    3s
     0     0 10737.3016    0    4          - 10737.3016      -     -    4s
*    0     0               0    10624.000000 10624.0000  0.00%     -    4s

Cutting planes:
  Cover: 1
  MIR: 2
  StrongCG: 2
  RLT: 2

Explored 1 nodes (35 simplex iterations) in 4.86 seconds (2.70 work units)
Thread count was 1 (of 4 available processors)

Solution count 1: 10624 

Optimal solution found (tolerance 1.00e-04)
Best objective 1.062400000000e+04, best bound 1.062400000000e+04, gap 0.0000%

User-callback calls 1069, time in user-callback 0.00 sec
opt = true
obj = 10624.0
nb_dom_cuts = 38331
solved_time = 4.8635
opt_val = 10624.0
